(set-logic HORN)
(declare-fun state (Int Int (Array Int Int) Int Int Bool Bool Int) Bool)
(assert (forall ((|main@%_3_0_3| Int) (|.y.8| Int) (|main@%shadow.mem.0_0_3| (Array Int Int)) (|main@%x.0.i_0_1| Int) (|main@%_1_0_3| Int) (|.loc.9| Bool) (|.loc.10| Bool) (|main@%_13_0_0| Int) (|.loc.16| Bool) (|.y.15| Int) (|.y.14| Int) (|.y.11| Int) (|.y.13| (Array Int Int)) (|.loc.17| Bool) (|.y.12| Int) (|.xtv.1| Int)) (=> (and (not .loc.9) (not .loc.10)) (state |main@%_3_0_3| |.y.8| |main@%shadow.mem.0_0_3| |main@%x.0.i_0_1| |main@%_1_0_3| |.loc.9| |.loc.10| |main@%_13_0_0|))))
(assert (forall ((|main@%_3_0_3| Int) (|.y.8| Int) (|main@%shadow.mem.0_0_3| (Array Int Int)) (|main@%x.0.i_0_1| Int) (|main@%_1_0_3| Int) (|.loc.9| Bool) (|.loc.10| Bool) (|main@%_13_0_0| Int) (|.loc.16| Bool) (|.y.15| Int) (|.y.14| Int) (|.y.11| Int) (|.y.13| (Array Int Int)) (|.loc.17| Bool) (|.y.12| Int) (|.xtv.1| Int)) (=> (and (state |main@%_3_0_3| |.y.8| |main@%shadow.mem.0_0_3| |main@%x.0.i_0_1| |main@%_1_0_3| |.loc.9| |.loc.10| |main@%_13_0_0|) (let ((.def_18 (not .loc.9))) (let ((.def_19 (not .loc.10))) (let ((.def_33 (<= main@%_3_0_3 0))) (let ((.def_34 (or (not (<= main@%_13_0_0 0)) .def_33))) (let ((.def_36 (not .def_33))) (let ((.def_37 (and (and (and (not (<= main@%_1_0_3 main@%x.0.i_0_1)) (= (+ main@%_3_0_3 (+ main@%x.0.i_0_1 (* (- 1) main@%_13_0_0))) 0)) .def_34) .def_36))) (let ((.def_39 (<= (select main@%shadow.mem.0_0_3 main@%_13_0_0) (- 1)))) (let ((.def_49 (not .loc.16))) (let ((.def_53 (<= main@%x.0.i_0_1 .y.8))) (let ((.def_56 (= main@%_3_0_3 .y.11))) (let ((.def_59 (= main@%shadow.mem.0_0_3 .y.13))) (let ((.def_87 (not .loc.17))) (or (or (and (or (or (and (and .def_18 (and .loc.10 (and .def_37 .def_39))) .loc.16) (and (= main@%x.0.i_0_1 .y.15) (and (and (and (and (= .y.14 0) (and .def_19 (and .loc.9 .def_49))) .def_53) .def_56) .def_59))) (and (= main@%_1_0_3 .y.15) (and (= (+ main@%x.0.i_0_1 (* (- 1) .y.14)) (- 1)) (and .def_59 (and .def_56 (and .def_49 (and .def_18 (and .loc.10 (and .def_37 (not .def_39)))))))))) .loc.17) (and (not (<= .y.14 0)) (and (not (<= .y.11 0)) (and (= .y.12 0) (and (and .def_19 (and .def_18 .loc.16)) .def_87))))) (and (= main@%x.0.i_0_1 .y.14) (and (not .def_53) (and (= (+ main@%_3_0_3 (+ .y.8 (* (- 1) main@%_13_0_0))) 0) (and (= .y.13 (store main@%shadow.mem.0_0_3 main@%_13_0_0 0)) (and (= (+ .y.8 (* (- 1) .y.12)) (- 1)) (and .def_87 (and .def_56 (and .def_19 (and .loc.16 (and .loc.9 (and .def_34 .def_36))))))))))))))))))))))))) (state |.y.11| |.y.12| |.y.13| |.y.14| |.y.15| |.loc.16| |.loc.17| |.xtv.1|))))
(assert (forall ((|main@%_3_0_3| Int) (|.y.8| Int) (|main@%shadow.mem.0_0_3| (Array Int Int)) (|main@%x.0.i_0_1| Int) (|main@%_1_0_3| Int) (|.loc.9| Bool) (|.loc.10| Bool) (|main@%_13_0_0| Int) (|.loc.16| Bool) (|.y.15| Int) (|.y.14| Int) (|.y.11| Int) (|.y.13| (Array Int Int)) (|.loc.17| Bool) (|.y.12| Int) (|.xtv.1| Int)) (=> (state |main@%_3_0_3| |.y.8| |main@%shadow.mem.0_0_3| |main@%x.0.i_0_1| |main@%_1_0_3| |.loc.9| |.loc.10| |main@%_13_0_0|) (not (and .loc.9 .loc.10)))))
(check-sat)
